Solver command line: []

Read LP format model from file C:\Users\wlhlm\AppData\Local\Temp\tmpe0u7qv6v.pyomo.lp
Reading time = 0.04 seconds
objective: 18325 rows, 16631 columns, 41491 nonzeros
Set parameter TimeLimit to value 5000
Set parameter MIPGap to value 0.08
Gurobi Optimizer version 12.0.1 build v12.0.1rc0 (win64 - Windows 11.0 (26100.2))

CPU model: Intel(R) Core(TM) Ultra 7 258V, instruction set [SSE2|AVX|AVX2]
Thread count: 8 physical cores, 8 logical processors, using up to 8 threads

Non-default parameters:
TimeLimit  5000
MIPGap  0.08

Optimize a model with 18325 rows, 16631 columns and 41491 nonzeros
Model fingerprint: 0x2b24fff6
Model has 167 quadratic constraints
Variable types: 14280 continuous, 2351 integer (2016 binary)
Coefficient statistics:
  Matrix range     [8e-03, 2e+02]
  QMatrix range    [1e+00, 1e+00]
  Objective range  [4e+01, 3e+02]
  Bounds range     [1e+00, 3e+00]
  RHS range        [1e-03, 1e+04]
Presolve removed 15959 rows and 13756 columns
Presolve time: 0.05s
Presolved: 2366 rows, 2875 columns, 8098 nonzeros
Variable types: 2220 continuous, 655 integer (655 binary)

Root relaxation: objective 3.871025e+06, 1481 iterations, 0.01 seconds (0.02 work units)

    Nodes    |    Current Node    |     Objective Bounds      |     Work
 Expl Unexpl |  Obj  Depth IntInf | Incumbent    BestBd   Gap | It/Node Time

     0     0 3871025.26    0   21          - 3871025.26      -     -    0s
     0     0 3872089.51    0   18          - 3872089.51      -     -    0s
     0     0 3872089.51    0   20          - 3872089.51      -     -    0s
     0     0 3872567.93    0   12          - 3872567.93      -     -    0s
     0     0 3872567.93    0   15          - 3872567.93      -     -    0s
     0     0 3872658.21    0   14          - 3872658.21      -     -    0s
     0     0 3872688.29    0   11          - 3872688.29      -     -    0s
H    0     0                    3874732.9391 3872688.29  0.05%     -    0s

Cutting planes:
  Learned: 4
  Gomory: 18
  Implied bound: 3
  MIR: 50
  Flow cover: 31
  RLT: 2
  Relax-and-lift: 4

Explored 1 nodes (1758 simplex iterations) in 0.21 seconds (0.22 work units)
Thread count was 8 (of 8 available processors)

Solution count 1: 3.87473e+06 

Optimal solution found (tolerance 8.00e-02)
Best objective 3.874732939118e+06, best bound 3.872688292823e+06, gap 0.0528%

